250 250
120 135 86 103 66 135 91 131 71 153 87 168 118 140 132 152 135 121 68 155
133 186 75 73 85 97 175 176 176 72 148 107 90 109 159 93 68 158 94 76
10 24 53 64 32 64 44 322 54 32 53 65 3 32 54 65 84 93 58 39